nCaps = 10;
task = [9,8,10];
noAgents = 7;
capabilities = [{10,9},{},{2,3,4,8,5,1,7,6},{2,3,4,8,5,1,7,6},{2,3,4,8,5,1,7,6},{},{10,9}];
isConnected = [|
false,true,false,false,false,true,false |
true,false,true,true,true,false,true |
false,true,false,false,false,true,false |
false,true,false,false,false,true,false |
false,true,false,false,false,true,false |
true,false,true,true,true,false,true |
false,true,false,false,false,true,false |];
